73
19
0 19 21 24 26 27 30 31 32 33 38 41 44 45 46 49 52 53 54 55 56 57 58 59 60 61 62 64 66 67 68 71
1 19 20 21 23 24 26 27 28 30 32 35 38 41 43 44 45 47 49 50 53 54 59 60 61 63 65 68 71 72
2 19 20 21 26 27 29 30 35 36 38 39 41 42 43 45 46 54 58 59 61 62 65 67 68 71
3 19 21 22 24 26 29 30 35 36 38 43 44 45 50 52 53 54 55 58 59 60 61 62 65 66 68 71 72
4 19 20 21 22 23 24 30 32 38 40 43 44 46 47 53 54 55 58 59 60 62 65 66 69 71
5 19 22 24 27 28 29 30 33 38 40 41 43 45 47 52 54 55 56 58 61 62 63 65 66 67 68 70 71 72
6 20 24 26 27 35 36 38 40 41 44 45 46 47 50 54 55 59 60 61 62 68 72
7 19 21 24 26 33 35 39 40 41 43 44 46 48 50 53 54 55 58 61 62 65 71 72
8 21 24 26 27 28 32 33 35 36 40 43 44 49 52 58 59 60 61 62 63 65 68 69 71
9 19 22 24 27 30 35 40 41 44 45 46 47 49 54 58 59 60 62 68
10 20 22 24 27 33 37 39 40 43 45 48 49 52 56 57 58 62 67 68 71
11 19 25 45 53 59 62 63 70 72
12 23 28 29 33 41 47 52 53 56 59 61 62 68
13 19 23 24 28 30 35 46 48 49 50 53 56 61 63 67 68 70
14 22 28 43 53 57 59 62 70 72
15 20 33 35 37 41 50 51 53 58 61
16 21 23 26 30 34 37 42 45 64
17 25 29 32 38 52
18 60
